
Gurobi 12.0.2 (win64) logging started Fri Jun  6 10:09:11 2025

Set parameter LogFile to value "C:\Ioana\_uni\honours\slp\algorithm\Main_files\results\others\prox_tubules_new\Task_002_Sample004_irr_gurobi.log"
Gurobi Optimizer version 12.0.2 build v12.0.2rc0 (win64 - Windows 11.0 (26100.2))

CPU model: Intel(R) Core(TM) Ultra 5 125H, instruction set [SSE2|AVX|AVX2]
Thread count: 14 physical cores, 18 logical processors, using up to 18 threads

Non-default parameters:
TimeLimit  2200

Optimize a model with 47658 rows, 34811 columns and 147858 nonzeros
Model fingerprint: 0xcb6b72ff
Variable types: 17417 continuous, 17394 integer (17394 binary)
Coefficient statistics:
  Matrix range     [1e-04, 8e+04]
  Objective range  [1e-04, 3e+00]
  Bounds range     [1e+00, 1e+03]
  RHS range        [1e+00, 1e+00]
Presolve removed 31251 rows and 21843 columns
Presolve time: 0.32s
Presolved: 16407 rows, 12968 columns, 54603 nonzeros
Variable types: 6422 continuous, 6546 integer (6546 binary)

Root relaxation: objective 8.834644e-03, 3143 iterations, 0.21 seconds (0.39 work units)

    Nodes    |    Current Node    |     Objective Bounds      |     Work
 Expl Unexpl |  Obj  Depth IntInf | Incumbent    BestBd   Gap | It/Node Time

     0     0    0.00883    0   15          -    0.00883      -     -    0s
H    0     0                       6.1827328    0.00883   100%     -    0s
     0     0    2.69972    0   31    6.18273    2.69972  56.3%     -    1s
     0     0    2.69972    0   31    6.18273    2.69972  56.3%     -    1s
     0     0    2.69972    0   31    6.18273    2.69972  56.3%     -    1s
     0     0    2.69972    0   31    6.18273    2.69972  56.3%     -    1s
     0     0    2.69972    0   31    6.18273    2.69972  56.3%     -    1s
     0     0    2.69972    0   31    6.18273    2.69972  56.3%     -    1s
     0     0    2.69972    0   31    6.18273    2.69972  56.3%     -    1s
     0     0    2.69972    0   31    6.18273    2.69972  56.3%     -    1s
     0     0    2.69972    0   31    6.18273    2.69972  56.3%     -    1s
     0     0    3.05485    0   30    6.18273    3.05485  50.6%     -    1s
     0     0    3.81757    0   29    6.18273    3.81757  38.3%     -    1s
     0     0    4.46055    0   31    6.18273    4.46055  27.9%     -    1s
     0     0    4.46144    0   42    6.18273    4.46144  27.8%     -    1s
     0     0    4.46393    0   39    6.18273    4.46393  27.8%     -    1s
     0     0    4.46393    0   39    6.18273    4.46393  27.8%     -    1s
     0     0    4.46394    0   41    6.18273    4.46394  27.8%     -    1s
     0     0    4.46394    0   42    6.18273    4.46394  27.8%     -    2s
     0     0    4.81707    0   37    6.18273    4.81707  22.1%     -    2s
     0     0    4.81707    0    9    6.18273    4.81707  22.1%     -    2s
     0     0    5.32082    0   25    6.18273    5.32082  13.9%     -    2s
     0     0    5.32895    0   17    6.18273    5.32895  13.8%     -    2s
     0     0    5.32896    0   20    6.18273    5.32896  13.8%     -    2s
     0     0     cutoff    0         6.18273    6.18273  0.00%     -    2s

Cutting planes:
  Gomory: 1
  Cover: 10
  Implied bound: 1
  Clique: 1
  MIR: 35
  Flow cover: 45
  Flow path: 4
  Network: 10
  Relax-and-lift: 1

Explored 1 nodes (11172 simplex iterations) in 2.72 seconds (2.94 work units)
Thread count was 18 (of 18 available processors)

Solution count 1: 6.18273 

Optimal solution found (tolerance 1.00e-04)
Best objective 6.182732842516e+00, best bound 6.182732842516e+00, gap 0.0000%
